; QF_LIA benchmark: system_06
(set-logic QF_LIA)
(declare-fun v0 () Int)
(declare-fun v1 () Int)
(declare-fun v2 () Int)
(declare-fun v3 () Int)
(assert (<= (+ (* -1 v0) (* -3 v1) (* 4 v2) (* 1 v3)) 31))
(assert (<= (+ (* -4 v0) (* 2 v1) (* 1 v3)) -8))
(assert (= (+ (* 5 v0) (* -4 v1) (* -3 v2)) 2))
(assert (= (+ (* 2 v0) (* -1 v1) (* 5 v2) (* 1 v3)) 47))
(assert (<= (+ (* -5 v0) (* 2 v1) (* -4 v2)) -18))
(assert (= (+ (* -4 v0) (* 1 v1) (* 3 v2) (* -5 v3)) 34))
(assert (<= (+ (* 2 v0) (* 1 v1) (* -5 v2) (* -2 v3)) 16))
(check-sat)
(exit)
